35 86 
62 87 
29 69 
40 59 
40 11 
9 36 
4 87 
74 70 
27 72 
95 68 
81 48 
51 62 
92 87 
42 89 
77 8 
76 12 
94 90 
51 76 
11 91 
87 51 
2 97 
39 58 
36 66 
29 63 
38 24 
31 71 
24 35 
34 17 
22 28 
58 51 
36 86 
63 82 
76 15 
58 40 
58 98 
91 13 
47 83 
71 83 
49 0 
98 39 
77 82 
10 1 
17 96 
70 91 
24 29 
42 12 
15 5 
95 44 
72 5 
36 83 
